p edge 38 152
e 1 4
e 1 4
e 1 22
e 1 35
e 2 11
e 2 28
e 2 30
e 2 31
e 3 8
e 3 10
e 3 21
e 3 22
e 4 2
e 4 11
e 4 21
e 4 30
e 5 25
e 5 27
e 5 29
e 5 37
e 6 28
e 6 30
e 6 32
e 6 35
e 7 6
e 7 8
e 7 13
e 7 27
e 8 2
e 8 5
e 8 26
e 8 37
e 9 6
e 9 7
e 9 24
e 9 34
e 10 14
e 10 17
e 10 20
e 10 35
e 11 2
e 11 3
e 11 4
e 11 34
e 12 22
e 12 29
e 12 29
e 12 36
e 13 15
e 13 27
e 13 28
e 13 36
e 14 15
e 14 16
e 14 21
e 14 25
e 15 5
e 15 6
e 15 23
e 15 36
e 16 3
e 16 4
e 16 10
e 16 33
e 17 4
e 17 16
e 17 25
e 17 28
e 18 11
e 18 14
e 18 23
e 18 38
e 19 14
e 19 15
e 19 25
e 19 26
e 20 14
e 20 21
e 20 23
e 20 33
e 21 3
e 21 9
e 21 11
e 21 19
e 22 13
e 22 18
e 22 34
e 22 34
e 23 5
e 23 11
e 23 19
e 23 31
e 24 25
e 24 31
e 24 37
e 24 38
e 25 2
e 25 5
e 25 5
e 25 8
e 26 8
e 26 13
e 26 14
e 26 21
e 27 1
e 27 4
e 27 12
e 27 33
e 28 3
e 28 5
e 28 17
e 28 34
e 29 14
e 29 16
e 29 21
e 29 30
e 30 3
e 30 11
e 30 12
e 30 26
e 31 16
e 31 22
e 31 22
e 31 22
e 32 12
e 32 24
e 32 30
e 32 30
e 33 3
e 33 14
e 33 16
e 33 16
e 34 5
e 34 17
e 34 24
e 34 31
e 35 8
e 35 12
e 35 13
e 35 32
e 36 7
e 36 18
e 36 33
e 36 37
e 37 2
e 37 6
e 37 11
e 37 29
e 38 9
e 38 10
e 38 28
e 38 37
